NAME: random-91-5510
TYPE: TSP
COMMENT: size=91 seed=5510
DIMENSION: 184
EDGE_WEIGHT_TYPE: EUC_2D
NODE_COORD_SECTION
+0 570 562
-0 570 562
+1 355 438
-1 867 0
+2 656 540
-2 289 83
+3 954 490
-3 152 584
+4 164 616
-4 936 24
+5 430 942
-5 75 548
+6 286 589
-6 108 639
+7 236 489
-7 765 507
+8 558 303
-8 515 54
+9 495 941
-9 670 299
+10 603 509
-10 723 310
+11 267 150
-11 720 932
+12 146 682
-12 229 126
+13 510 882
-13 267 601
+14 280 898
-14 477 79
+15 572 647
-15 922 461
+16 418 543
-16 768 227
+17 646 148
-17 554 258
+18 528 985
-18 204 467
+19 82 435
-19 585 969
+20 683 510
-20 501 439
+21 422 654
-21 318 981
+22 981 268
-22 132 241
+23 252 104
-23 241 993
+24 470 378
-24 879 104
+25 390 504
-25 656 926
+26 508 177
-26 883 716
+27 172 378
-27 782 229
+28 365 421
-28 876 547
+29 60 206
-29 794 574
+30 453 806
-30 588 626
+31 694 263
-31 581 613
+32 648 17
-32 531 126
+33 104 682
-33 295 718
+34 259 756
-34 165 137
+35 503 2
-35 972 118
+36 714 856
-36 93 826
+37 167 983
-37 988 115
+38 432 990
-38 467 581
+39 784 164
-39 575 932
+40 575 685
-40 815 707
+41 448 644
-41 750 486
+42 320 120
-42 126 227
+43 101 609
-43 463 489
+44 582 722
-44 925 294
+45 875 346
-45 41 839
+46 240 8
-46 592 174
+47 164 479
-47 828 491
+48 574 562
-48 642 78
+49 846 168
-49 550 552
+50 428 207
-50 147 34
+51 490 332
-51 643 232
+52 47 663
-52 511 607
+53 422 160
-53 137 489
+54 163 499
-54 468 815
+55 196 556
-55 306 487
+56 460 872
-56 74 384
+57 507 160
-57 883 712
+58 881 238
-58 843 593
+59 581 971
-59 297 945
+60 321 16
-60 378 792
+61 366 265
-61 25 718
+62 959 598
-62 499 792
+63 213 941
-63 584 243
+64 810 207
-64 700 764
+65 508 48
-65 150 650
+66 567 934
-66 374 728
+67 308 76
-67 508 410
+68 244 59
-68 629 915
+69 320 647
-69 931 62
+70 764 6
-70 308 671
+71 472 458
-71 583 279
+72 563 312
-72 682 547
+73 409 178
-73 281 250
+74 654 661
-74 305 547
+75 138 484
-75 517 630
+76 430 928
-76 950 218
+77 328 371
-77 3 824
+78 426 127
-78 828 829
+79 234 780
-79 702 7
+80 483 874
-80 893 983
+81 185 556
-81 166 190
+82 272 549
-82 768 997
+83 515 126
-83 146 8
+84 454 743
-84 711 817
+85 253 578
-85 393 402
+86 333 745
-86 914 800
+87 13 278
-87 327 472
+88 972 561
-88 95 464
+89 346 932
-89 142 290
+90 987 966
-90 700 256
+91 867 291
-91 527 975
PRECEDENCE_SECTION
+0 -0
+1 -1
+2 -2
+3 -3
+4 -4
+5 -5
+6 -6
+7 -7
+8 -8
+9 -9
+10 -10
+11 -11
+12 -12
+13 -13
+14 -14
+15 -15
+16 -16
+17 -17
+18 -18
+19 -19
+20 -20
+21 -21
+22 -22
+23 -23
+24 -24
+25 -25
+26 -26
+27 -27
+28 -28
+29 -29
+30 -30
+31 -31
+32 -32
+33 -33
+34 -34
+35 -35
+36 -36
+37 -37
+38 -38
+39 -39
+40 -40
+41 -41
+42 -42
+43 -43
+44 -44
+45 -45
+46 -46
+47 -47
+48 -48
+49 -49
+50 -50
+51 -51
+52 -52
+53 -53
+54 -54
+55 -55
+56 -56
+57 -57
+58 -58
+59 -59
+60 -60
+61 -61
+62 -62
+63 -63
+64 -64
+65 -65
+66 -66
+67 -67
+68 -68
+69 -69
+70 -70
+71 -71
+72 -72
+73 -73
+74 -74
+75 -75
+76 -76
+77 -77
+78 -78
+79 -79
+80 -80
+81 -81
+82 -82
+83 -83
+84 -84
+85 -85
+86 -86
+87 -87
+88 -88
+89 -89
+90 -90
+91 -91
EOF
